! wB97X-D3 def2-SVP CPCM(Water) TightSCF TightOpt
%pal
  nprocs 8
end
%maxcore 3000
%geom
  Calc_Hess true
  Recalc_Hess 10
  MaxIter 300
end
* xyzfile 0 1 ../inputs/compound_09_wb97xd3_def2svp_cpcm_water_start.xyz
